c Addition of two binary numbers: 1010101101 and 111101
p cnf 38 107
-1 12 22 0
-1 -12 -22 0
1 -12 22 0
1 12 -22 0
-29 12 0
-29 22 0
-12 -22 29 0
-2 13 -23 -29 0
-2 -13 23 -29 0
-2 -13 -23 29 0
-2 13 23 29 0
2 -13 23 29 0
2 13 -23 29 0
2 13 23 -29 0
2 -13 -23 -29 0
-30 13 23 0
-30 13 29 0
-30 23 29 0
30 -13 -23 0
30 -13 -29 0
30 -23 -29 0
-3 14 -24 -30 0
-3 -14 24 -30 0
-3 -14 -24 30 0
-3 14 24 30 0
3 -14 24 30 0
3 14 -24 30 0
3 14 24 -30 0
3 -14 -24 -30 0
-31 14 24 0
-31 14 30 0
-31 24 30 0
31 -14 -24 0
31 -14 -30 0
31 -24 -30 0
-4 15 -25 -31 0
-4 -15 25 -31 0
-4 -15 -25 31 0
-4 15 25 31 0
4 -15 25 31 0
4 15 -25 31 0
4 15 25 -31 0
4 -15 -25 -31 0
-32 15 25 0
-32 15 31 0
-32 25 31 0
32 -15 -25 0
32 -15 -31 0
32 -25 -31 0
-5 16 -26 -32 0
-5 -16 26 -32 0
-5 -16 -26 32 0
-5 16 26 32 0
5 -16 26 32 0
5 16 -26 32 0
5 16 26 -32 0
5 -16 -26 -32 0
-33 16 26 0
-33 16 32 0
-33 26 32 0
33 -16 -26 0
33 -16 -32 0
33 -26 -32 0
-6 17 -27 -33 0
-6 -17 27 -33 0
-6 -17 -27 33 0
-6 17 27 33 0
6 -17 27 33 0
6 17 -27 33 0
6 17 27 -33 0
6 -17 -27 -33 0
-34 17 27 0
-34 17 33 0
-34 27 33 0
34 -17 -27 0
34 -17 -33 0
34 -27 -33 0
-7 18 34 0
-7 -18 -34 0
7 -18 34 0
7 18 -34 0
-35 18 0
-35 34 0
-18 -34 35 0
-8 19 35 0
-8 -19 -35 0
8 -19 35 0
8 19 -35 0
-36 19 0
-36 35 0
-19 -35 36 0
-9 20 36 0
-9 -20 -36 0
9 -20 36 0
9 20 -36 0
-37 20 0
-37 36 0
-20 -36 37 0
-10 21 37 0
-10 -21 -37 0
10 -21 37 0
10 21 -37 0
-38 21 0
-38 37 0
-21 -37 38 0
-11 38 0
-38 11 0
12 0
-13 0
14 0
15 0
-16 0
17 0
-18 0
19 0
-20 0
21 0
22 0
-23 0
24 0
25 0
26 0
27 0
-28 0
